tsp_instances/TSP20/instance18.tsp
NODE_COORD_SECTION
0 191 58
1 125 8
2 164 170
3 197 37
4 112 182
5 71 7
6 163 143
7 60 192
8 12 29
9 25 35
10 152 65
11 198 53
12 172 111
13 33 63
14 50 93
15 37 61
16 135 17
17 19 109
18 40 63
19 183 183
