tsp_instances/TSP20/instance18.opt.tour
TOUR_SECTION
1
11
13
7
3
20
5
8
18
15
19
16
14
10
9
6
2
17
4
12
-1